334
335
309
334
332
333
344
343
328
313
322
351
346
326
353
331
321
331
343
328
336
344
369
316
345
339
340
341
326
347
326
322
338
317
360
377
349
318
357
353
343
347
339
353
342
328
335
348
326
330
340
336
318
354
339
321
329
326
344
353
357
334
338
350
351
342
318
347
339
327
327
328
323
348
361
337
341
334
359
322
344
343
349
343
346
346
346
336
353
348
339
347
345
339
359
335
336
346
337
341
